generated from relaxed-222 supercell
   1.00000000000000     
     4.60242918253         0.0000000000000000    0.0000000000000000
     0.0000000000000000    4.60242918253         0.0000000000000000
     0.0000000000000000    0.0000000000000000    2.96099888698
   Ti   O 
    2   4
Direct
  0.500000000000000   0.500000000000000   0.500000000000000
  0.0000000000000000  0.0000000000000000  0.0000000000000000
  0.19542107415       0.80457892584       0.5000000000000000
  0.80457892584       0.19542107415       0.5000000000000000
  0.30457892584       0.30457892584       0.0000000000000000
  0.69542107415       0.69542107415       0.0000000000000000
